p cnf 34 96
a 25 22 14 0
e 1 2 3 4 5 6 7 8 9 10 11 12 13 15 16 17 18 19 20 21 23 24 26 27 28 29 30 31 32 33 34 0
3 1 0
3 2 0
-1 -2 -3 0
3 4 -5 0
-3 -4 -5 0
3 -4 5 0
-3 4 5 0
7 -6 0
7 4 0
6 -4 -7 0
5 7 -8 0
-5 -7 -8 0
5 -7 8 0
-5 7 8 0
-10 8 0
-10 -9 0
-8 9 10 0
-12 11 0
-12 9 0
-11 -9 12 0
10 -12 -13 0
-10 12 -13 0
10 12 13 0
-10 -12 13 0
-14 -6 0
-14 -2 0
6 2 14 0
16 -14 0
16 15 0
14 -15 -16 0
-17 -14 0
-17 4 0
14 -4 17 0
-18 -16 0
-18 17 0
16 -17 18 0
-19 14 0
-19 18 0
-14 -18 19 0
-9 4 -20 0
9 -4 -20 0
-9 -4 20 0
9 4 20 0
-21 -19 0
-21 -20 0
19 20 21 0
-6 -17 -22 0
6 17 -22 0
-6 17 22 0
6 -17 22 0
-24 23 0
-24 -23 0
-6 -24 -25 0
6 24 -25 0
-6 24 25 0
6 -24 25 0
-26 -25 0
-26 -3 0
25 3 26 0
27 -22 0
27 -26 0
22 26 -27 0
-21 -27 -28 0
21 27 -28 0
-21 27 28 0
21 -27 28 0
-29 -4 0
-29 -23 0
4 23 29 0
30 29 0
30 23 0
-29 -23 -30 0
31 -15 0
31 -15 0
15 -31 0
30 -31 -32 0
-30 31 -32 0
30 31 32 0
-30 -31 32 0
-33 -28 0
-33 -32 0
28 32 33 0
13 33 -34 0
-13 -33 -34 0
13 -33 34 0
-13 33 34 0
29 33 -5 -15 -21 0
27 9 -33 -20 -15 0
-21 24 -15 0
25 -5 0
-28 20 30 7 18 14 6 0
-12 -25 4 -2 -7 33 -18 0
-3 32 -25 0
10 21 -18 -23 -22 0
-15 -32 -30 20 22 0
34 0
